
******************************************************************************
This program contains Ipopt, a library for large-scale nonlinear optimization.
 Ipopt is released as open source code under the Eclipse Public License (EPL).
         For more information visit http://projects.coin-or.org/Ipopt

This version of Ipopt was compiled from source code available at
    https://github.com/IDAES/Ipopt as part of the Institute for the Design of
    Advanced Energy Systems Process Systems Engineering Framework (IDAES PSE
    Framework) Copyright (c) 2018-2019. See https://github.com/IDAES/idaes-pse.

This version of Ipopt was compiled using HSL, a collection of Fortran codes
    for large-scale scientific computation.  All technical papers, sales and
    publicity material resulting from use of the HSL codes within IPOPT must
    contain the following acknowledgement:
        HSL, a collection of Fortran codes for large-scale scientific
        computation. See http://www.hsl.rl.ac.uk.
******************************************************************************

This is Ipopt version 3.13.2, running with linear solver ma27.

Number of nonzeros in equality constraint Jacobian...:      958
Number of nonzeros in inequality constraint Jacobian.:        0
Number of nonzeros in Lagrangian Hessian.............:      832

Total number of variables............................:      416
                     variables with only lower bounds:      128
                variables with lower and upper bounds:      224
                     variables with only upper bounds:        0
Total number of equality constraints.................:      415
Total number of inequality constraints...............:        0
        inequality constraints with only lower bounds:        0
   inequality constraints with lower and upper bounds:        0
        inequality constraints with only upper bounds:        0

iter    objective    inf_pr   inf_du lg(mu)  ||d||  lg(rg) alpha_du alpha_pr  ls
   0  0.0000000e+00 5.50e-01 1.78e-15  -1.0 0.00e+00    -  0.00e+00 0.00e+00   0
   1  3.3296822e-02 4.79e-01 3.10e+03  -1.0 1.14e+05    -  3.41e-01 1.17e-01h  1
   2  3.4309416e-02 4.78e-01 3.09e+03  -1.0 9.59e+04    -  7.30e-01 2.06e-03h  1
   3  7.0172331e+00 2.50e-02 1.22e+05  -1.0 1.56e+05    -  8.00e-01 9.90e-01h  1
   4  8.4609110e+00 4.21e-04 1.58e+04  -1.0 1.66e+04    -  9.69e-01 9.90e-01h  1
   5  8.4914317e+00 4.32e-06 1.60e+02  -1.0 3.58e+02    -  9.90e-01 9.90e-01h  1
   6  8.4919605e+00 4.28e-06 1.11e+07  -1.0 1.28e+03    -  9.90e-01 7.73e-03f  8
   7  8.4937862e+00 4.22e-06 2.21e+07  -1.0 2.20e+03    -  9.91e-01 1.55e-02f  7
   8  8.6091104e+00 2.74e-05 3.38e+05  -1.0 2.16e+03    -  1.00e+00 9.90e-01h  1
   9  8.6106600e+00 2.97e-07 1.16e+07  -1.0 3.04e+01    -  1.00e+00 9.90e-01h  1
iter    objective    inf_pr   inf_du lg(mu)  ||d||  lg(rg) alpha_du alpha_pr  ls
  10  8.6106785e+00 2.97e-09 1.16e+09  -1.0 3.61e-01    -  1.00e+00 9.90e-01h  1
  11  8.6106787e+00 2.97e-11 1.16e+11  -1.0 3.61e-03    -  1.00e+00 9.90e-01h  1
In iteration 11, 32 Slacks too small, adjusting variable bounds
  12  8.6106787e+00 1.21e-11 1.16e+13  -1.0 3.61e-05    -  1.00e+00 9.90e-01h  1
  13  8.6106787e+00 1.25e-11 1.15e+15  -1.0 3.33e-07    -  1.00e+00 2.44e-04h 13
  14  8.6106787e+00 2.75e-11 2.97e-01  -1.0 3.71e-07    -  1.00e+00 1.00e+00s 22
  15  8.4899162e+00 3.23e-05 3.13e-01  -9.0 2.67e+03    -  8.43e-01 8.43e-01s 22
  16  8.4900395e+00 1.08e-08 2.09e-04  -9.0 3.91e+00    -  1.00e+00 1.00e+00s 22
  17  8.4900396e+00 1.78e-12 2.65e+08  -9.0 5.72e-04    -  1.00e+00 0.00e+00S 22
  18  8.4900396e+00 5.88e-12 2.61e+08  -9.0 1.33e-07    -  1.00e+00 1.56e-02h  7
  19  8.4900396e+00 3.01e-12 1.95e+08  -9.0 3.91e-07    -  1.00e+00 2.50e-01h  3
iter    objective    inf_pr   inf_du lg(mu)  ||d||  lg(rg) alpha_du alpha_pr  ls
  20  8.4900396e+00 6.39e-12 1.94e+08  -9.0 4.45e-08    -  1.00e+00 7.81e-03h  8
  21  8.4900396e+00 2.90e-11 2.10e-08  -9.0 1.30e-07    -  1.00e+00 1.00e+00s 22

Number of Iterations....: 21

                                   (scaled)                 (unscaled)
Objective...............:   8.4900395518147675e+00    8.4900395518147675e+00
Dual infeasibility......:   2.0998413674533367e-08    2.0998413674533367e-08
Constraint violation....:   2.9028335291059193e-11    2.9028335291059193e-11
Complementarity.........:   9.0909090909090931e-10    9.0909090909090931e-10
Overall NLP error.......:   3.0469134856122389e-10    2.0998413674533367e-08


Number of objective function evaluations             = 115
Number of objective gradient evaluations             = 22
Number of equality constraint evaluations            = 115
Number of inequality constraint evaluations          = 0
Number of equality constraint Jacobian evaluations   = 22
Number of inequality constraint Jacobian evaluations = 0
Number of Lagrangian Hessian evaluations             = 21
Total CPU secs in IPOPT (w/o function evaluations)   =      0.049
Total CPU secs in NLP function evaluations           =      1.045

EXIT: Optimal Solution Found.
